(declare-fun bvlambda_2_ () (_ BitVec 6))
(declare-fun bvlambda_12_ () (_ BitVec 2))
(declare-fun a108 () (Array (_ BitVec 1) (_ BitVec 4)))
(assert
(let (($e1 (_ bv0 1)))
(let (($e8 (_ bv84 7)))
(let (($e14 (_ bv10 5)))
(let (($e26 (_ bv4 9)))
(let (($e28 (_ bv4  13)))
(let (($e35 (_ bv4 4)))
(let (($e155 (store a108 $e1 $e35)))
(let (($e167         $e1                       ))
(let (($e264         $e14               ))
(let (($e265         $e264              ))
(let (($e266         $e265              ))
(let (($e288 (concat $e8   bvlambda_2_)))
(let (($e291      (bvult $e28 $e288)         ))
(let (($e292 (select $e155 (bvnot $e291))))
(let (($e335               $e292 ))
                  (bvult (bvnot $e335) $e335)
                                                                                                                                                                                                                                                                                                                                                                                                                                                                                                                                                                                                                                                                                                                                                                                                                                                                                            )                                          ))  )                     )))                                                                                                )           )                                                                            )      ) )           )     )      ))
